50
100
97
96
96
93
93
93
91
88
86
86
85
85
85
82
81
78
75
74
71
71
69
67
67
65
65
65
64
61
61
60
58
58
56
54
53
49
45
44
43
40
38
38
38
34
33
31
30
26
23
23
